c Counting Principle: 3 divided in parts of size 2.
c Generated with `cnfgen`
c (C) 2012-2018 Massimo Lauria <lauria.massimo@gmail.com>
c https://massimolauria.github.io/cnfgen
c
c COMMAND LINE: cnfgen parity 3
c
p cnf 3 6
-1 -2 0
1 2 0
-1 -3 0
1 3 0
-2 -3 0
2 3 0
